/*********************************************
 * OPL 12.6.0.0 Data
 * Author: HP
 * Creation Date: 2021/04/24 at 12:11:20 Õ
 *********************************************/
n=8;
 p=15;
c=[
  [0   30   0   24  25  0   0  0 ],
  [ 30  0   27  28  0   27  0  0  ],
  [ 0   27  0   0   0   26  30 0 ],
  [ 24  28  0   0   29  21  0  0 ],
  [ 25  0   0   29  0   30  0  30 ],
  [ 0  27  26  21  30   0    28  36  ], 
  [ 0   0  30  0   0   28   0  25 ],
  [ 0   0   0  0   30   36  25 0 ] , ];